Maximize
  - 3.288197076006 edge_0_2_0_0 - 2.033320655211 edge_0_3_0_0
   - 2.2903744114728 edge_0_5_0_0 - 3.0585960261896 edge_0_6_0_0
   - 1.55265 edge_0_7_0_0 - 2.9833737385673 edge_0_8_0_0
   - 1.6161697090894 edge_0_10_0_0 - 1.888479433456 edge_0_12_0_0
   - 1.0720265201644 edge_0_13_0_0 - 2.57848165827 edge_0_15_0_0
   - 2.548066355478 edge_0_17_0_0 - 2.1015 edge_0_18_0_0
   + 0.4905171677728649 edge_2_3_0_0 + 0.3212326605051843 edge_2_4_0_0
   + 0.1605654575526 edge_2_5_0_0 + 0.2630354456126594 edge_2_6_0_0
   - 0.6606303478617001 edge_2_7_0_0 + 0.3269255589969247 edge_2_8_0_0
   - 1.116871205973347 edge_2_10_0_0 - 0.9679141981677416 edge_2_11_0_0
   + 0.2959214237161977 edge_2_19_0_0 + 2.730437680642617 edge_3_2_0_0
   + 1.869692573130686 edge_3_4_0_0 + 2.0921106541558 edge_3_5_0_0
   + 0.9410883999709867 edge_3_6_0_0 + 1.8351991580872 edge_3_7_0_0
   + 2.779923063419365 edge_3_8_0_0 + 0.6496203790563707 edge_3_10_0_0
   - 0.0232863744419424 edge_3_11_0_0 + 0.4013415374177627 edge_3_12_0_0
   - 1.200765774361345 edge_3_16_0_0 - 0.15993997061672 edge_3_18_0_0
   + 1.923452163044651 edge_3_19_0_0 - 0.413149403749924 edge_4_2_0_0
   + 0.9751583504820001 edge_5_2_0_0 + 0.5722697388835301 edge_5_3_0_0
   + 1.462749413955 edge_5_4_0_0 + 2.490381905778161 edge_5_6_0_0
   + 2.587328447602196 edge_5_7_0_0 + 1.450499321180429 edge_5_8_0_0
   + 0.3563103992531395 edge_5_9_0_0 + 0.9400683542857653 edge_5_10_0_0
   - 0.5289458741207801 edge_5_11_0_0 + 0.8133059717766283 edge_5_12_0_0
   - 0.0287964072925368 edge_5_13_0_0 + 0.00471135201204212 edge_5_14_0_0
   + 0.2073264693572463 edge_5_15_0_0 - 0.4867618465441585 edge_5_16_0_0
   - 0.1473945293340709 edge_5_17_0_0 - 0.0363031394950495 edge_5_18_0_0
   + 0.8412177844174001 edge_5_19_0_0 - 0.446362098824178 edge_6_2_0_0
   - 0.00247542479559824 edge_6_3_0_0 - 0.2604805533506255 edge_6_4_0_0
   + 1.0972134221104 edge_6_5_0_0 + 1.5466587326606 edge_6_7_0_0
   + 1.6760003140324 edge_6_8_0_0 - 0.4508112696313848 edge_6_10_0_0
   - 0.9640392108778983 edge_6_11_0_0 - 0.5130446027238289 edge_6_12_0_0
   - 0.5718464587115748 edge_6_15_0_0 - 2.089630248282496 edge_6_16_0_0
   - 0.9851460905849 edge_6_18_0_0 + 1.945933251843137 edge_6_19_0_0
   + 0.73275868927494 edge_7_2_0_0 + 0.30002682636204 edge_7_3_0_0
   + 0.5441954663130001 edge_7_4_0_0 + 1.47249 edge_7_5_0_0
   + 2.0377817293326 edge_7_6_0_0 + 1.6323776655508 edge_7_8_0_0
   + 0.7693802026090486 edge_7_9_0_0 + 1.095903612303714 edge_7_10_0_0
   + 0.076114022251365 edge_7_11_0_0 + 0.998012575904104 edge_7_12_0_0
   + 0.1029653760382761 edge_7_13_0_0 + 0.0970642873472251 edge_7_14_0_0
   + 0.7026600665039652 edge_7_15_0_0 - 0.2874466756467491 edge_7_16_0_0
   - 0.1559501513547877 edge_7_17_0_0 + 0.0513809481051977 edge_7_18_0_0
   + 1.99203764929 edge_7_19_0_0 - 1.195320494967176 edge_8_5_0_0
   - 0.7762560829458147 edge_8_6_0_0 - 0.4102545322306109 edge_8_7_0_0
   - 0.0504748426976519 edge_8_9_0_0 - 0.3527959530988206 edge_8_12_0_0
   - 0.4155573809420277 edge_8_15_0_0 - 0.9664340150617499 edge_8_17_0_0
   - 0.4904874420732282 edge_8_18_0_0 - 0.631871286355958 edge_9_7_0_0
   + 0.0367082603086125 edge_9_8_0_0 + 0.5306535447173792 edge_9_10_0_0
   + 0.1852463949007846 edge_9_15_0_0 - 0.8389705953353882 edge_9_16_0_0
   + 0.3264261406944241 edge_10_2_0_0 + 0.3607692880212783 edge_10_3_0_0
   - 0.2425706854260188 edge_10_4_0_0 + 0.5768798351105978 edge_10_5_0_0
   + 0.8710126567168235 edge_10_6_0_0 + 0.751899864658 edge_10_7_0_0
   + 1.087088360256354 edge_10_8_0_0 + 4.646876472000785 edge_10_9_0_0
   + 1.286199263604591 edge_10_11_0_0 + 3.173758476595371 edge_10_12_0_0
   + 1.462470189175888 edge_10_13_0_0 - 0.072637805950361 edge_10_14_0_0
   + 0.3740736135512617 edge_10_15_0_0 + 0.5328864125490285 edge_10_16_0_0
   + 2.024987548267561 edge_10_17_0_0 + 1.5262397252768 edge_10_18_0_0
   + 1.925957712313549 edge_10_19_0_0 - 0.9718245866724633 edge_11_3_0_0
   - 0.6605514749854087 edge_11_4_0_0 - 0.7870692613632626 edge_11_8_0_0
   + 0.0439927997013576 edge_11_10_0_0 + 0.7808216905842226 edge_11_12_0_0
   - 0.2121460887869175 edge_11_16_0_0 + 0.031351653604638 edge_11_18_0_0
   + 0.141420883519446 edge_11_19_0_0 - 0.6427561890514255 edge_12_2_0_0
   - 0.2889747034764862 edge_12_3_0_0 - 1.171626213277031 edge_12_4_0_0
   + 0.314368056061121 edge_12_5_0_0 + 0.8936089223826679 edge_12_6_0_0
   + 0.4604578495831722 edge_12_7_0_0 + 0.6475518621537856 edge_12_8_0_0
   + 3.116408073476247 edge_12_9_0_0 + 0.6473729099449431 edge_12_10_0_0
   + 3.145758812979373 edge_12_11_0_0 + 0.2636763974888378 edge_12_13_0_0
   + 0.3451064546302973 edge_12_14_0_0 + 0.8727914209742225 edge_12_15_0_0
   + 0.2433147616099496 edge_12_16_0_0 + 0.8233259237881719 edge_12_17_0_0
   + 1.428769571369 edge_12_18_0_0 + 1.619539472928013 edge_12_19_0_0
   + 0.1225903487070122 edge_13_3_0_0 + 0.00209972557728769 edge_13_5_0_0
   - 0.0951893424621486 edge_13_7_0_0 + 0.1194594501172306 edge_13_8_0_0
   + 0.5196481060448861 edge_13_10_0_0 + 0.6762204855819943 edge_13_12_0_0
   + 0.202203735512763 edge_13_15_0_0 + 0.4004664417435217 edge_13_17_0_0
   + 0.042779459204755 edge_13_18_0_0 + 0.0162550538556038 edge_13_19_0_0
   - 0.4920102113930644 edge_14_5_0_0 - 0.2548436763706368 edge_14_6_0_0
   + 0.37733710639942 edge_14_10_0_0 + 0.0687319746892668 edge_14_12_0_0
   + 0.2267098570055107 edge_14_16_0_0 - 0.1081232316725702 edge_14_17_0_0
   + 0.3529397450927485 edge_14_18_0_0 + 0.3916127379585077 edge_14_19_0_0
   + 0.130338669045736 edge_15_5_0_0 - 0.0791159919892669 edge_15_6_0_0
   - 0.0944505506960978 edge_15_7_0_0 + 0.3234671704551704 edge_15_8_0_0
   - 0.1996761940026468 edge_15_9_0_0 + 0.891071967025452 edge_15_10_0_0
   + 0.3320571792775815 edge_15_12_0_0 - 0.0184608765771418 edge_15_13_0_0
   + 1.636700619182881 edge_15_14_0_0 + 1.091019117538125 edge_15_16_0_0
   + 0.6564488232645509 edge_15_17_0_0 + 1.945756654956636 edge_15_18_0_0
   + 0.9806955215477248 edge_15_19_0_0 - 0.0781658065405007 edge_16_11_0_0
   + 0.149657928362008 edge_16_12_0_0 + 0.2089297040119437 edge_16_14_0_0
   + 1.377255836932736 edge_16_17_0_0 + 0.9703236845127199 edge_16_18_0_0
   + 0.7447595898117113 edge_16_19_0_0 - 0.1770601370157058 edge_17_3_0_0
   - 0.5866157206707491 edge_17_5_0_0 - 0.6331534369642255 edge_17_7_0_0
   + 0.2133466660959009 edge_17_8_0_0 + 0.5014957765222188 edge_17_10_0_0
   + 0.9287170405032268 edge_17_12_0_0 + 0.1752650703674968 edge_17_13_0_0
   - 0.2229144627286039 edge_17_14_0_0 - 0.0532143155207957 edge_17_15_0_0
   + 0.657708708084897 edge_17_16_0_0 + 0.6473511700776972 edge_17_18_0_0
   + 0.0468950478117852 edge_17_19_0_0 - 0.5395802543964601 edge_18_2_0_0
   - 0.28337129136358 edge_18_3_0_0 - 1.213678087125 edge_18_4_0_0
   - 0.5862292157275835 edge_18_5_0_0 - 0.10938449242842 edge_18_6_0_0
   - 0.3309940704513479 edge_18_7_0_0 + 1.40591992407688 edge_18_8_0_0
   + 0.42901623936051 edge_18_9_0_0 + 1.413918649585932 edge_18_10_0_0
   + 0.5819994272154599 edge_18_11_0_0 + 1.029289272780664 edge_18_12_0_0
   + 0.7339557195882278 edge_18_13_0_0 + 0.4466895344836187 edge_18_14_0_0
   + 0.1507369269995828 edge_18_15_0_0 + 2.8489105777648 edge_18_16_0_0
   + 3.8105480047026 edge_18_17_0_0 + 1.967380966418242 edge_18_19_0_0
   + 0.2459320576539026 edge_19_15_0_0 - 0.9700798253363061 edge_19_16_0_0
   - 0.6794619379466509 edge_19_17_0_0 - 0.9230046872382437 edge_19_18_0_0
Subject To
 one_parent_1: = 1
 consume_one_flow_unit_1: = 1
 one_parent_2: edge_0_2_0_0 + edge_3_2_0_0 + edge_4_2_0_0 + edge_5_2_0_0
   + edge_6_2_0_0 + edge_7_2_0_0 + edge_10_2_0_0 + edge_12_2_0_0
   + edge_18_2_0_0 = 1
 consume_one_flow_unit_2: flow_0_2_0_0 - flow_2_3_0_0 - flow_2_4_0_0
   - flow_2_5_0_0 - flow_2_6_0_0 - flow_2_7_0_0 - flow_2_8_0_0
   - flow_2_10_0_0 - flow_2_11_0_0 - flow_2_19_0_0 + flow_3_2_0_0
   + flow_4_2_0_0 + flow_5_2_0_0 + flow_6_2_0_0 + flow_7_2_0_0
   + flow_10_2_0_0 + flow_12_2_0_0 + flow_18_2_0_0 = 1
 one_parent_3: edge_0_3_0_0 + edge_2_3_0_0 + edge_5_3_0_0 + edge_6_3_0_0
   + edge_7_3_0_0 + edge_10_3_0_0 + edge_11_3_0_0 + edge_12_3_0_0
   + edge_13_3_0_0 + edge_17_3_0_0 + edge_18_3_0_0 = 1
 consume_one_flow_unit_3: flow_0_3_0_0 + flow_2_3_0_0 - flow_3_2_0_0
   - flow_3_4_0_0 - flow_3_5_0_0 - flow_3_6_0_0 - flow_3_7_0_0
   - flow_3_8_0_0 - flow_3_10_0_0 - flow_3_11_0_0 - flow_3_12_0_0
   - flow_3_16_0_0 - flow_3_18_0_0 - flow_3_19_0_0 + flow_5_3_0_0
   + flow_6_3_0_0 + flow_7_3_0_0 + flow_10_3_0_0 + flow_11_3_0_0
   + flow_12_3_0_0 + flow_13_3_0_0 + flow_17_3_0_0 + flow_18_3_0_0 = 1
 one_parent_4: edge_2_4_0_0 + edge_3_4_0_0 + edge_5_4_0_0 + edge_6_4_0_0
   + edge_7_4_0_0 + edge_10_4_0_0 + edge_11_4_0_0 + edge_12_4_0_0
   + edge_18_4_0_0 = 1
 consume_one_flow_unit_4: flow_2_4_0_0 + flow_3_4_0_0 - flow_4_2_0_0
   + flow_5_4_0_0 + flow_6_4_0_0 + flow_7_4_0_0 + flow_10_4_0_0
   + flow_11_4_0_0 + flow_12_4_0_0 + flow_18_4_0_0 = 1
 one_parent_5: edge_0_5_0_0 + edge_2_5_0_0 + edge_3_5_0_0 + edge_6_5_0_0
   + edge_7_5_0_0 + edge_8_5_0_0 + edge_10_5_0_0 + edge_12_5_0_0
   + edge_13_5_0_0 + edge_14_5_0_0 + edge_15_5_0_0 + edge_17_5_0_0
   + edge_18_5_0_0 = 1
 consume_one_flow_unit_5: flow_0_5_0_0 + flow_2_5_0_0 + flow_3_5_0_0
   - flow_5_2_0_0 - flow_5_3_0_0 - flow_5_4_0_0 - flow_5_6_0_0
   - flow_5_7_0_0 - flow_5_8_0_0 - flow_5_9_0_0 - flow_5_10_0_0
   - flow_5_11_0_0 - flow_5_12_0_0 - flow_5_13_0_0 - flow_5_14_0_0
   - flow_5_15_0_0 - flow_5_16_0_0 - flow_5_17_0_0 - flow_5_18_0_0
   - flow_5_19_0_0 + flow_6_5_0_0 + flow_7_5_0_0 + flow_8_5_0_0
   + flow_10_5_0_0 + flow_12_5_0_0 + flow_13_5_0_0 + flow_14_5_0_0
   + flow_15_5_0_0 + flow_17_5_0_0 + flow_18_5_0_0 = 1
 one_parent_6: edge_0_6_0_0 + edge_2_6_0_0 + edge_3_6_0_0 + edge_5_6_0_0
   + edge_7_6_0_0 + edge_8_6_0_0 + edge_10_6_0_0 + edge_12_6_0_0
   + edge_14_6_0_0 + edge_15_6_0_0 + edge_18_6_0_0 = 1
 consume_one_flow_unit_6: flow_0_6_0_0 + flow_2_6_0_0 + flow_3_6_0_0
   + flow_5_6_0_0 - flow_6_2_0_0 - flow_6_3_0_0 - flow_6_4_0_0
   - flow_6_5_0_0 - flow_6_7_0_0 - flow_6_8_0_0 - flow_6_10_0_0
   - flow_6_11_0_0 - flow_6_12_0_0 - flow_6_15_0_0 - flow_6_16_0_0
   - flow_6_18_0_0 - flow_6_19_0_0 + flow_7_6_0_0 + flow_8_6_0_0
   + flow_10_6_0_0 + flow_12_6_0_0 + flow_14_6_0_0 + flow_15_6_0_0
   + flow_18_6_0_0 = 1
 one_parent_7: edge_0_7_0_0 + edge_2_7_0_0 + edge_3_7_0_0 + edge_5_7_0_0
   + edge_6_7_0_0 + edge_8_7_0_0 + edge_9_7_0_0 + edge_10_7_0_0
   + edge_12_7_0_0 + edge_13_7_0_0 + edge_15_7_0_0 + edge_17_7_0_0
   + edge_18_7_0_0 = 1
 consume_one_flow_unit_7: flow_0_7_0_0 + flow_2_7_0_0 + flow_3_7_0_0
   + flow_5_7_0_0 + flow_6_7_0_0 - flow_7_2_0_0 - flow_7_3_0_0
   - flow_7_4_0_0 - flow_7_5_0_0 - flow_7_6_0_0 - flow_7_8_0_0
   - flow_7_9_0_0 - flow_7_10_0_0 - flow_7_11_0_0 - flow_7_12_0_0
   - flow_7_13_0_0 - flow_7_14_0_0 - flow_7_15_0_0 - flow_7_16_0_0
   - flow_7_17_0_0 - flow_7_18_0_0 - flow_7_19_0_0 + flow_8_7_0_0
   + flow_9_7_0_0 + flow_10_7_0_0 + flow_12_7_0_0 + flow_13_7_0_0
   + flow_15_7_0_0 + flow_17_7_0_0 + flow_18_7_0_0 = 1
 one_parent_8: edge_0_8_0_0 + edge_2_8_0_0 + edge_3_8_0_0 + edge_5_8_0_0
   + edge_6_8_0_0 + edge_7_8_0_0 + edge_9_8_0_0 + edge_10_8_0_0
   + edge_11_8_0_0 + edge_12_8_0_0 + edge_13_8_0_0 + edge_15_8_0_0
   + edge_17_8_0_0 + edge_18_8_0_0 = 1
 consume_one_flow_unit_8: flow_0_8_0_0 + flow_2_8_0_0 + flow_3_8_0_0
   + flow_5_8_0_0 + flow_6_8_0_0 + flow_7_8_0_0 - flow_8_5_0_0
   - flow_8_6_0_0 - flow_8_7_0_0 - flow_8_9_0_0 - flow_8_12_0_0
   - flow_8_15_0_0 - flow_8_17_0_0 - flow_8_18_0_0 + flow_9_8_0_0
   + flow_10_8_0_0 + flow_11_8_0_0 + flow_12_8_0_0 + flow_13_8_0_0
   + flow_15_8_0_0 + flow_17_8_0_0 + flow_18_8_0_0 = 1
 one_parent_9: edge_5_9_0_0 + edge_7_9_0_0 + edge_8_9_0_0 + edge_10_9_0_0
   + edge_12_9_0_0 + edge_15_9_0_0 + edge_18_9_0_0 = 1
 consume_one_flow_unit_9: flow_5_9_0_0 + flow_7_9_0_0 + flow_8_9_0_0
   - flow_9_7_0_0 - flow_9_8_0_0 - flow_9_10_0_0 - flow_9_15_0_0
   - flow_9_16_0_0 + flow_10_9_0_0 + flow_12_9_0_0 + flow_15_9_0_0
   + flow_18_9_0_0 = 1
 one_parent_10: edge_0_10_0_0 + edge_2_10_0_0 + edge_3_10_0_0
   + edge_5_10_0_0 + edge_6_10_0_0 + edge_7_10_0_0 + edge_9_10_0_0
   + edge_11_10_0_0 + edge_12_10_0_0 + edge_13_10_0_0 + edge_14_10_0_0
   + edge_15_10_0_0 + edge_17_10_0_0 + edge_18_10_0_0 = 1
 consume_one_flow_unit_10: flow_0_10_0_0 + flow_2_10_0_0 + flow_3_10_0_0
   + flow_5_10_0_0 + flow_6_10_0_0 + flow_7_10_0_0 + flow_9_10_0_0
   - flow_10_2_0_0 - flow_10_3_0_0 - flow_10_4_0_0 - flow_10_5_0_0
   - flow_10_6_0_0 - flow_10_7_0_0 - flow_10_8_0_0 - flow_10_9_0_0
   - flow_10_11_0_0 - flow_10_12_0_0 - flow_10_13_0_0 - flow_10_14_0_0
   - flow_10_15_0_0 - flow_10_16_0_0 - flow_10_17_0_0 - flow_10_18_0_0
   - flow_10_19_0_0 + flow_11_10_0_0 + flow_12_10_0_0 + flow_13_10_0_0
   + flow_14_10_0_0 + flow_15_10_0_0 + flow_17_10_0_0 + flow_18_10_0_0 = 1
 one_parent_11: edge_2_11_0_0 + edge_3_11_0_0 + edge_5_11_0_0
   + edge_6_11_0_0 + edge_7_11_0_0 + edge_10_11_0_0 + edge_12_11_0_0
   + edge_16_11_0_0 + edge_18_11_0_0 = 1
 consume_one_flow_unit_11: flow_2_11_0_0 + flow_3_11_0_0 + flow_5_11_0_0
   + flow_6_11_0_0 + flow_7_11_0_0 + flow_10_11_0_0 - flow_11_3_0_0
   - flow_11_4_0_0 - flow_11_8_0_0 - flow_11_10_0_0 - flow_11_12_0_0
   - flow_11_16_0_0 - flow_11_18_0_0 - flow_11_19_0_0 + flow_12_11_0_0
   + flow_16_11_0_0 + flow_18_11_0_0 = 1
 one_parent_12: edge_0_12_0_0 + edge_3_12_0_0 + edge_5_12_0_0
   + edge_6_12_0_0 + edge_7_12_0_0 + edge_8_12_0_0 + edge_10_12_0_0
   + edge_11_12_0_0 + edge_13_12_0_0 + edge_14_12_0_0 + edge_15_12_0_0
   + edge_16_12_0_0 + edge_17_12_0_0 + edge_18_12_0_0 = 1
 consume_one_flow_unit_12: flow_0_12_0_0 + flow_3_12_0_0 + flow_5_12_0_0
   + flow_6_12_0_0 + flow_7_12_0_0 + flow_8_12_0_0 + flow_10_12_0_0
   + flow_11_12_0_0 - flow_12_2_0_0 - flow_12_3_0_0 - flow_12_4_0_0
   - flow_12_5_0_0 - flow_12_6_0_0 - flow_12_7_0_0 - flow_12_8_0_0
   - flow_12_9_0_0 - flow_12_10_0_0 - flow_12_11_0_0 - flow_12_13_0_0
   - flow_12_14_0_0 - flow_12_15_0_0 - flow_12_16_0_0 - flow_12_17_0_0
   - flow_12_18_0_0 - flow_12_19_0_0 + flow_13_12_0_0 + flow_14_12_0_0
   + flow_15_12_0_0 + flow_16_12_0_0 + flow_17_12_0_0 + flow_18_12_0_0 = 1
 one_parent_13: edge_0_13_0_0 + edge_5_13_0_0 + edge_7_13_0_0
   + edge_10_13_0_0 + edge_12_13_0_0 + edge_15_13_0_0 + edge_17_13_0_0
   + edge_18_13_0_0 = 1
 consume_one_flow_unit_13: flow_0_13_0_0 + flow_5_13_0_0 + flow_7_13_0_0
   + flow_10_13_0_0 + flow_12_13_0_0 - flow_13_3_0_0 - flow_13_5_0_0
   - flow_13_7_0_0 - flow_13_8_0_0 - flow_13_10_0_0 - flow_13_12_0_0
   - flow_13_15_0_0 - flow_13_17_0_0 - flow_13_18_0_0 - flow_13_19_0_0
   + flow_15_13_0_0 + flow_17_13_0_0 + flow_18_13_0_0 = 1
 one_parent_14: edge_5_14_0_0 + edge_7_14_0_0 + edge_10_14_0_0
   + edge_12_14_0_0 + edge_15_14_0_0 + edge_16_14_0_0 + edge_17_14_0_0
   + edge_18_14_0_0 = 1
 consume_one_flow_unit_14: flow_5_14_0_0 + flow_7_14_0_0 + flow_10_14_0_0
   + flow_12_14_0_0 - flow_14_5_0_0 - flow_14_6_0_0 - flow_14_10_0_0
   - flow_14_12_0_0 - flow_14_16_0_0 - flow_14_17_0_0 - flow_14_18_0_0
   - flow_14_19_0_0 + flow_15_14_0_0 + flow_16_14_0_0 + flow_17_14_0_0
   + flow_18_14_0_0 = 1
 one_parent_15: edge_0_15_0_0 + edge_5_15_0_0 + edge_6_15_0_0
   + edge_7_15_0_0 + edge_8_15_0_0 + edge_9_15_0_0 + edge_10_15_0_0
   + edge_12_15_0_0 + edge_13_15_0_0 + edge_17_15_0_0 + edge_18_15_0_0
   + edge_19_15_0_0 = 1
 consume_one_flow_unit_15: flow_0_15_0_0 + flow_5_15_0_0 + flow_6_15_0_0
   + flow_7_15_0_0 + flow_8_15_0_0 + flow_9_15_0_0 + flow_10_15_0_0
   + flow_12_15_0_0 + flow_13_15_0_0 - flow_15_5_0_0 - flow_15_6_0_0
   - flow_15_7_0_0 - flow_15_8_0_0 - flow_15_9_0_0 - flow_15_10_0_0
   - flow_15_12_0_0 - flow_15_13_0_0 - flow_15_14_0_0 - flow_15_16_0_0
   - flow_15_17_0_0 - flow_15_18_0_0 - flow_15_19_0_0 + flow_17_15_0_0
   + flow_18_15_0_0 + flow_19_15_0_0 = 1
 one_parent_16: edge_3_16_0_0 + edge_5_16_0_0 + edge_6_16_0_0
   + edge_7_16_0_0 + edge_9_16_0_0 + edge_10_16_0_0 + edge_11_16_0_0
   + edge_12_16_0_0 + edge_14_16_0_0 + edge_15_16_0_0 + edge_17_16_0_0
   + edge_18_16_0_0 + edge_19_16_0_0 = 1
 consume_one_flow_unit_16: flow_3_16_0_0 + flow_5_16_0_0 + flow_6_16_0_0
   + flow_7_16_0_0 + flow_9_16_0_0 + flow_10_16_0_0 + flow_11_16_0_0
   + flow_12_16_0_0 + flow_14_16_0_0 + flow_15_16_0_0 - flow_16_11_0_0
   - flow_16_12_0_0 - flow_16_14_0_0 - flow_16_17_0_0 - flow_16_18_0_0
   - flow_16_19_0_0 + flow_17_16_0_0 + flow_18_16_0_0 + flow_19_16_0_0 = 1
 one_parent_17: edge_0_17_0_0 + edge_5_17_0_0 + edge_7_17_0_0
   + edge_8_17_0_0 + edge_10_17_0_0 + edge_12_17_0_0 + edge_13_17_0_0
   + edge_14_17_0_0 + edge_15_17_0_0 + edge_16_17_0_0 + edge_18_17_0_0
   + edge_19_17_0_0 = 1
 consume_one_flow_unit_17: flow_0_17_0_0 + flow_5_17_0_0 + flow_7_17_0_0
   + flow_8_17_0_0 + flow_10_17_0_0 + flow_12_17_0_0 + flow_13_17_0_0
   + flow_14_17_0_0 + flow_15_17_0_0 + flow_16_17_0_0 - flow_17_3_0_0
   - flow_17_5_0_0 - flow_17_7_0_0 - flow_17_8_0_0 - flow_17_10_0_0
   - flow_17_12_0_0 - flow_17_13_0_0 - flow_17_14_0_0 - flow_17_15_0_0
   - flow_17_16_0_0 - flow_17_18_0_0 - flow_17_19_0_0 + flow_18_17_0_0
   + flow_19_17_0_0 = 1
 one_parent_18: edge_0_18_0_0 + edge_3_18_0_0 + edge_5_18_0_0
   + edge_6_18_0_0 + edge_7_18_0_0 + edge_8_18_0_0 + edge_10_18_0_0
   + edge_11_18_0_0 + edge_12_18_0_0 + edge_13_18_0_0 + edge_14_18_0_0
   + edge_15_18_0_0 + edge_16_18_0_0 + edge_17_18_0_0 + edge_19_18_0_0 = 1
 consume_one_flow_unit_18: flow_0_18_0_0 + flow_3_18_0_0 + flow_5_18_0_0
   + flow_6_18_0_0 + flow_7_18_0_0 + flow_8_18_0_0 + flow_10_18_0_0
   + flow_11_18_0_0 + flow_12_18_0_0 + flow_13_18_0_0 + flow_14_18_0_0
   + flow_15_18_0_0 + flow_16_18_0_0 + flow_17_18_0_0 - flow_18_2_0_0
   - flow_18_3_0_0 - flow_18_4_0_0 - flow_18_5_0_0 - flow_18_6_0_0
   - flow_18_7_0_0 - flow_18_8_0_0 - flow_18_9_0_0 - flow_18_10_0_0
   - flow_18_11_0_0 - flow_18_12_0_0 - flow_18_13_0_0 - flow_18_14_0_0
   - flow_18_15_0_0 - flow_18_16_0_0 - flow_18_17_0_0 - flow_18_19_0_0
   + flow_19_18_0_0 = 1
 one_parent_19: edge_2_19_0_0 + edge_3_19_0_0 + edge_5_19_0_0
   + edge_6_19_0_0 + edge_7_19_0_0 + edge_10_19_0_0 + edge_11_19_0_0
   + edge_12_19_0_0 + edge_13_19_0_0 + edge_14_19_0_0 + edge_15_19_0_0
   + edge_16_19_0_0 + edge_17_19_0_0 + edge_18_19_0_0 = 1
 consume_one_flow_unit_19: flow_2_19_0_0 + flow_3_19_0_0 + flow_5_19_0_0
   + flow_6_19_0_0 + flow_7_19_0_0 + flow_10_19_0_0 + flow_11_19_0_0
   + flow_12_19_0_0 + flow_13_19_0_0 + flow_14_19_0_0 + flow_15_19_0_0
   + flow_16_19_0_0 + flow_17_19_0_0 + flow_18_19_0_0 - flow_19_15_0_0
   - flow_19_16_0_0 - flow_19_17_0_0 - flow_19_18_0_0 = 1
 root_flow: flow_0_2_0_0 + flow_0_3_0_0 + flow_0_5_0_0 + flow_0_6_0_0
   + flow_0_7_0_0 + flow_0_8_0_0 + flow_0_10_0_0 + flow_0_12_0_0
   + flow_0_13_0_0 + flow_0_15_0_0 + flow_0_17_0_0 + flow_0_18_0_0 = 19
 inactive_no_flow_0_2_0_0: flow_0_2_0_0 - 1000 edge_0_2_0_0 <= 0
 inactive_no_flow_0_3_0_0: flow_0_3_0_0 - 1000 edge_0_3_0_0 <= 0
 inactive_no_flow_0_5_0_0: flow_0_5_0_0 - 1000 edge_0_5_0_0 <= 0
 inactive_no_flow_0_6_0_0: flow_0_6_0_0 - 1000 edge_0_6_0_0 <= 0
 inactive_no_flow_0_7_0_0: flow_0_7_0_0 - 1000 edge_0_7_0_0 <= 0
 inactive_no_flow_0_8_0_0: flow_0_8_0_0 - 1000 edge_0_8_0_0 <= 0
 inactive_no_flow_0_10_0_0: flow_0_10_0_0 - 1000 edge_0_10_0_0 <= 0
 inactive_no_flow_0_12_0_0: flow_0_12_0_0 - 1000 edge_0_12_0_0 <= 0
 inactive_no_flow_0_13_0_0: flow_0_13_0_0 - 1000 edge_0_13_0_0 <= 0
 inactive_no_flow_0_15_0_0: flow_0_15_0_0 - 1000 edge_0_15_0_0 <= 0
 inactive_no_flow_0_17_0_0: flow_0_17_0_0 - 1000 edge_0_17_0_0 <= 0
 inactive_no_flow_0_18_0_0: flow_0_18_0_0 - 1000 edge_0_18_0_0 <= 0
 inactive_no_flow_2_3_0_0: flow_2_3_0_0 - 1000 edge_2_3_0_0 <= 0
 inactive_no_flow_2_4_0_0: flow_2_4_0_0 - 1000 edge_2_4_0_0 <= 0
 inactive_no_flow_2_5_0_0: flow_2_5_0_0 - 1000 edge_2_5_0_0 <= 0
 inactive_no_flow_2_6_0_0: flow_2_6_0_0 - 1000 edge_2_6_0_0 <= 0
 inactive_no_flow_2_7_0_0: flow_2_7_0_0 - 1000 edge_2_7_0_0 <= 0
 inactive_no_flow_2_8_0_0: flow_2_8_0_0 - 1000 edge_2_8_0_0 <= 0
 inactive_no_flow_2_10_0_0: flow_2_10_0_0 - 1000 edge_2_10_0_0 <= 0
 inactive_no_flow_2_11_0_0: flow_2_11_0_0 - 1000 edge_2_11_0_0 <= 0
 inactive_no_flow_2_19_0_0: flow_2_19_0_0 - 1000 edge_2_19_0_0 <= 0
 inactive_no_flow_3_2_0_0: flow_3_2_0_0 - 1000 edge_3_2_0_0 <= 0
 inactive_no_flow_3_4_0_0: flow_3_4_0_0 - 1000 edge_3_4_0_0 <= 0
 inactive_no_flow_3_5_0_0: flow_3_5_0_0 - 1000 edge_3_5_0_0 <= 0
 inactive_no_flow_3_6_0_0: flow_3_6_0_0 - 1000 edge_3_6_0_0 <= 0
 inactive_no_flow_3_7_0_0: flow_3_7_0_0 - 1000 edge_3_7_0_0 <= 0
 inactive_no_flow_3_8_0_0: flow_3_8_0_0 - 1000 edge_3_8_0_0 <= 0
 inactive_no_flow_3_10_0_0: flow_3_10_0_0 - 1000 edge_3_10_0_0 <= 0
 inactive_no_flow_3_11_0_0: flow_3_11_0_0 - 1000 edge_3_11_0_0 <= 0
 inactive_no_flow_3_12_0_0: flow_3_12_0_0 - 1000 edge_3_12_0_0 <= 0
 inactive_no_flow_3_16_0_0: flow_3_16_0_0 - 1000 edge_3_16_0_0 <= 0
 inactive_no_flow_3_18_0_0: flow_3_18_0_0 - 1000 edge_3_18_0_0 <= 0
 inactive_no_flow_3_19_0_0: flow_3_19_0_0 - 1000 edge_3_19_0_0 <= 0
 inactive_no_flow_4_2_0_0: flow_4_2_0_0 - 1000 edge_4_2_0_0 <= 0
 inactive_no_flow_5_2_0_0: flow_5_2_0_0 - 1000 edge_5_2_0_0 <= 0
 inactive_no_flow_5_3_0_0: flow_5_3_0_0 - 1000 edge_5_3_0_0 <= 0
 inactive_no_flow_5_4_0_0: flow_5_4_0_0 - 1000 edge_5_4_0_0 <= 0
 inactive_no_flow_5_6_0_0: flow_5_6_0_0 - 1000 edge_5_6_0_0 <= 0
 inactive_no_flow_5_7_0_0: flow_5_7_0_0 - 1000 edge_5_7_0_0 <= 0
 inactive_no_flow_5_8_0_0: flow_5_8_0_0 - 1000 edge_5_8_0_0 <= 0
 inactive_no_flow_5_9_0_0: flow_5_9_0_0 - 1000 edge_5_9_0_0 <= 0
 inactive_no_flow_5_10_0_0: flow_5_10_0_0 - 1000 edge_5_10_0_0 <= 0
 inactive_no_flow_5_11_0_0: flow_5_11_0_0 - 1000 edge_5_11_0_0 <= 0
 inactive_no_flow_5_12_0_0: flow_5_12_0_0 - 1000 edge_5_12_0_0 <= 0
 inactive_no_flow_5_13_0_0: flow_5_13_0_0 - 1000 edge_5_13_0_0 <= 0
 inactive_no_flow_5_14_0_0: flow_5_14_0_0 - 1000 edge_5_14_0_0 <= 0
 inactive_no_flow_5_15_0_0: flow_5_15_0_0 - 1000 edge_5_15_0_0 <= 0
 inactive_no_flow_5_16_0_0: flow_5_16_0_0 - 1000 edge_5_16_0_0 <= 0
 inactive_no_flow_5_17_0_0: flow_5_17_0_0 - 1000 edge_5_17_0_0 <= 0
 inactive_no_flow_5_18_0_0: flow_5_18_0_0 - 1000 edge_5_18_0_0 <= 0
 inactive_no_flow_5_19_0_0: flow_5_19_0_0 - 1000 edge_5_19_0_0 <= 0
 inactive_no_flow_6_2_0_0: flow_6_2_0_0 - 1000 edge_6_2_0_0 <= 0
 inactive_no_flow_6_3_0_0: flow_6_3_0_0 - 1000 edge_6_3_0_0 <= 0
 inactive_no_flow_6_4_0_0: flow_6_4_0_0 - 1000 edge_6_4_0_0 <= 0
 inactive_no_flow_6_5_0_0: flow_6_5_0_0 - 1000 edge_6_5_0_0 <= 0
 inactive_no_flow_6_7_0_0: flow_6_7_0_0 - 1000 edge_6_7_0_0 <= 0
 inactive_no_flow_6_8_0_0: flow_6_8_0_0 - 1000 edge_6_8_0_0 <= 0
 inactive_no_flow_6_10_0_0: flow_6_10_0_0 - 1000 edge_6_10_0_0 <= 0
 inactive_no_flow_6_11_0_0: flow_6_11_0_0 - 1000 edge_6_11_0_0 <= 0
 inactive_no_flow_6_12_0_0: flow_6_12_0_0 - 1000 edge_6_12_0_0 <= 0
 inactive_no_flow_6_15_0_0: flow_6_15_0_0 - 1000 edge_6_15_0_0 <= 0
 inactive_no_flow_6_16_0_0: flow_6_16_0_0 - 1000 edge_6_16_0_0 <= 0
 inactive_no_flow_6_18_0_0: flow_6_18_0_0 - 1000 edge_6_18_0_0 <= 0
 inactive_no_flow_6_19_0_0: flow_6_19_0_0 - 1000 edge_6_19_0_0 <= 0
 inactive_no_flow_7_2_0_0: flow_7_2_0_0 - 1000 edge_7_2_0_0 <= 0
 inactive_no_flow_7_3_0_0: flow_7_3_0_0 - 1000 edge_7_3_0_0 <= 0
 inactive_no_flow_7_4_0_0: flow_7_4_0_0 - 1000 edge_7_4_0_0 <= 0
 inactive_no_flow_7_5_0_0: flow_7_5_0_0 - 1000 edge_7_5_0_0 <= 0
 inactive_no_flow_7_6_0_0: flow_7_6_0_0 - 1000 edge_7_6_0_0 <= 0
 inactive_no_flow_7_8_0_0: flow_7_8_0_0 - 1000 edge_7_8_0_0 <= 0
 inactive_no_flow_7_9_0_0: flow_7_9_0_0 - 1000 edge_7_9_0_0 <= 0
 inactive_no_flow_7_10_0_0: flow_7_10_0_0 - 1000 edge_7_10_0_0 <= 0
 inactive_no_flow_7_11_0_0: flow_7_11_0_0 - 1000 edge_7_11_0_0 <= 0
 inactive_no_flow_7_12_0_0: flow_7_12_0_0 - 1000 edge_7_12_0_0 <= 0
 inactive_no_flow_7_13_0_0: flow_7_13_0_0 - 1000 edge_7_13_0_0 <= 0
 inactive_no_flow_7_14_0_0: flow_7_14_0_0 - 1000 edge_7_14_0_0 <= 0
 inactive_no_flow_7_15_0_0: flow_7_15_0_0 - 1000 edge_7_15_0_0 <= 0
 inactive_no_flow_7_16_0_0: flow_7_16_0_0 - 1000 edge_7_16_0_0 <= 0
 inactive_no_flow_7_17_0_0: flow_7_17_0_0 - 1000 edge_7_17_0_0 <= 0
 inactive_no_flow_7_18_0_0: flow_7_18_0_0 - 1000 edge_7_18_0_0 <= 0
 inactive_no_flow_7_19_0_0: flow_7_19_0_0 - 1000 edge_7_19_0_0 <= 0
 inactive_no_flow_8_5_0_0: flow_8_5_0_0 - 1000 edge_8_5_0_0 <= 0
 inactive_no_flow_8_6_0_0: flow_8_6_0_0 - 1000 edge_8_6_0_0 <= 0
 inactive_no_flow_8_7_0_0: flow_8_7_0_0 - 1000 edge_8_7_0_0 <= 0
 inactive_no_flow_8_9_0_0: flow_8_9_0_0 - 1000 edge_8_9_0_0 <= 0
 inactive_no_flow_8_12_0_0: flow_8_12_0_0 - 1000 edge_8_12_0_0 <= 0
 inactive_no_flow_8_15_0_0: flow_8_15_0_0 - 1000 edge_8_15_0_0 <= 0
 inactive_no_flow_8_17_0_0: flow_8_17_0_0 - 1000 edge_8_17_0_0 <= 0
 inactive_no_flow_8_18_0_0: flow_8_18_0_0 - 1000 edge_8_18_0_0 <= 0
 inactive_no_flow_9_7_0_0: flow_9_7_0_0 - 1000 edge_9_7_0_0 <= 0
 inactive_no_flow_9_8_0_0: flow_9_8_0_0 - 1000 edge_9_8_0_0 <= 0
 inactive_no_flow_9_10_0_0: flow_9_10_0_0 - 1000 edge_9_10_0_0 <= 0
 inactive_no_flow_9_15_0_0: flow_9_15_0_0 - 1000 edge_9_15_0_0 <= 0
 inactive_no_flow_9_16_0_0: flow_9_16_0_0 - 1000 edge_9_16_0_0 <= 0
 inactive_no_flow_10_2_0_0: flow_10_2_0_0 - 1000 edge_10_2_0_0 <= 0
 inactive_no_flow_10_3_0_0: flow_10_3_0_0 - 1000 edge_10_3_0_0 <= 0
 inactive_no_flow_10_4_0_0: flow_10_4_0_0 - 1000 edge_10_4_0_0 <= 0
 inactive_no_flow_10_5_0_0: flow_10_5_0_0 - 1000 edge_10_5_0_0 <= 0
 inactive_no_flow_10_6_0_0: flow_10_6_0_0 - 1000 edge_10_6_0_0 <= 0
 inactive_no_flow_10_7_0_0: flow_10_7_0_0 - 1000 edge_10_7_0_0 <= 0
 inactive_no_flow_10_8_0_0: flow_10_8_0_0 - 1000 edge_10_8_0_0 <= 0
 inactive_no_flow_10_9_0_0: flow_10_9_0_0 - 1000 edge_10_9_0_0 <= 0
 inactive_no_flow_10_11_0_0: flow_10_11_0_0 - 1000 edge_10_11_0_0 <= 0
 inactive_no_flow_10_12_0_0: flow_10_12_0_0 - 1000 edge_10_12_0_0 <= 0
 inactive_no_flow_10_13_0_0: flow_10_13_0_0 - 1000 edge_10_13_0_0 <= 0
 inactive_no_flow_10_14_0_0: flow_10_14_0_0 - 1000 edge_10_14_0_0 <= 0
 inactive_no_flow_10_15_0_0: flow_10_15_0_0 - 1000 edge_10_15_0_0 <= 0
 inactive_no_flow_10_16_0_0: flow_10_16_0_0 - 1000 edge_10_16_0_0 <= 0
 inactive_no_flow_10_17_0_0: flow_10_17_0_0 - 1000 edge_10_17_0_0 <= 0
 inactive_no_flow_10_18_0_0: flow_10_18_0_0 - 1000 edge_10_18_0_0 <= 0
 inactive_no_flow_10_19_0_0: flow_10_19_0_0 - 1000 edge_10_19_0_0 <= 0
 inactive_no_flow_11_3_0_0: flow_11_3_0_0 - 1000 edge_11_3_0_0 <= 0
 inactive_no_flow_11_4_0_0: flow_11_4_0_0 - 1000 edge_11_4_0_0 <= 0
 inactive_no_flow_11_8_0_0: flow_11_8_0_0 - 1000 edge_11_8_0_0 <= 0
 inactive_no_flow_11_10_0_0: flow_11_10_0_0 - 1000 edge_11_10_0_0 <= 0
 inactive_no_flow_11_12_0_0: flow_11_12_0_0 - 1000 edge_11_12_0_0 <= 0
 inactive_no_flow_11_16_0_0: flow_11_16_0_0 - 1000 edge_11_16_0_0 <= 0
 inactive_no_flow_11_18_0_0: flow_11_18_0_0 - 1000 edge_11_18_0_0 <= 0
 inactive_no_flow_11_19_0_0: flow_11_19_0_0 - 1000 edge_11_19_0_0 <= 0
 inactive_no_flow_12_2_0_0: flow_12_2_0_0 - 1000 edge_12_2_0_0 <= 0
 inactive_no_flow_12_3_0_0: flow_12_3_0_0 - 1000 edge_12_3_0_0 <= 0
 inactive_no_flow_12_4_0_0: flow_12_4_0_0 - 1000 edge_12_4_0_0 <= 0
 inactive_no_flow_12_5_0_0: flow_12_5_0_0 - 1000 edge_12_5_0_0 <= 0
 inactive_no_flow_12_6_0_0: flow_12_6_0_0 - 1000 edge_12_6_0_0 <= 0
 inactive_no_flow_12_7_0_0: flow_12_7_0_0 - 1000 edge_12_7_0_0 <= 0
 inactive_no_flow_12_8_0_0: flow_12_8_0_0 - 1000 edge_12_8_0_0 <= 0
 inactive_no_flow_12_9_0_0: flow_12_9_0_0 - 1000 edge_12_9_0_0 <= 0
 inactive_no_flow_12_10_0_0: flow_12_10_0_0 - 1000 edge_12_10_0_0 <= 0
 inactive_no_flow_12_11_0_0: flow_12_11_0_0 - 1000 edge_12_11_0_0 <= 0
 inactive_no_flow_12_13_0_0: flow_12_13_0_0 - 1000 edge_12_13_0_0 <= 0
 inactive_no_flow_12_14_0_0: flow_12_14_0_0 - 1000 edge_12_14_0_0 <= 0
 inactive_no_flow_12_15_0_0: flow_12_15_0_0 - 1000 edge_12_15_0_0 <= 0
 inactive_no_flow_12_16_0_0: flow_12_16_0_0 - 1000 edge_12_16_0_0 <= 0
 inactive_no_flow_12_17_0_0: flow_12_17_0_0 - 1000 edge_12_17_0_0 <= 0
 inactive_no_flow_12_18_0_0: flow_12_18_0_0 - 1000 edge_12_18_0_0 <= 0
 inactive_no_flow_12_19_0_0: flow_12_19_0_0 - 1000 edge_12_19_0_0 <= 0
 inactive_no_flow_13_3_0_0: flow_13_3_0_0 - 1000 edge_13_3_0_0 <= 0
 inactive_no_flow_13_5_0_0: flow_13_5_0_0 - 1000 edge_13_5_0_0 <= 0
 inactive_no_flow_13_7_0_0: flow_13_7_0_0 - 1000 edge_13_7_0_0 <= 0
 inactive_no_flow_13_8_0_0: flow_13_8_0_0 - 1000 edge_13_8_0_0 <= 0
 inactive_no_flow_13_10_0_0: flow_13_10_0_0 - 1000 edge_13_10_0_0 <= 0
 inactive_no_flow_13_12_0_0: flow_13_12_0_0 - 1000 edge_13_12_0_0 <= 0
 inactive_no_flow_13_15_0_0: flow_13_15_0_0 - 1000 edge_13_15_0_0 <= 0
 inactive_no_flow_13_17_0_0: flow_13_17_0_0 - 1000 edge_13_17_0_0 <= 0
 inactive_no_flow_13_18_0_0: flow_13_18_0_0 - 1000 edge_13_18_0_0 <= 0
 inactive_no_flow_13_19_0_0: flow_13_19_0_0 - 1000 edge_13_19_0_0 <= 0
 inactive_no_flow_14_5_0_0: flow_14_5_0_0 - 1000 edge_14_5_0_0 <= 0
 inactive_no_flow_14_6_0_0: flow_14_6_0_0 - 1000 edge_14_6_0_0 <= 0
 inactive_no_flow_14_10_0_0: flow_14_10_0_0 - 1000 edge_14_10_0_0 <= 0
 inactive_no_flow_14_12_0_0: flow_14_12_0_0 - 1000 edge_14_12_0_0 <= 0
 inactive_no_flow_14_16_0_0: flow_14_16_0_0 - 1000 edge_14_16_0_0 <= 0
 inactive_no_flow_14_17_0_0: flow_14_17_0_0 - 1000 edge_14_17_0_0 <= 0
 inactive_no_flow_14_18_0_0: flow_14_18_0_0 - 1000 edge_14_18_0_0 <= 0
 inactive_no_flow_14_19_0_0: flow_14_19_0_0 - 1000 edge_14_19_0_0 <= 0
 inactive_no_flow_15_5_0_0: flow_15_5_0_0 - 1000 edge_15_5_0_0 <= 0
 inactive_no_flow_15_6_0_0: flow_15_6_0_0 - 1000 edge_15_6_0_0 <= 0
 inactive_no_flow_15_7_0_0: flow_15_7_0_0 - 1000 edge_15_7_0_0 <= 0
 inactive_no_flow_15_8_0_0: flow_15_8_0_0 - 1000 edge_15_8_0_0 <= 0
 inactive_no_flow_15_9_0_0: flow_15_9_0_0 - 1000 edge_15_9_0_0 <= 0
 inactive_no_flow_15_10_0_0: flow_15_10_0_0 - 1000 edge_15_10_0_0 <= 0
 inactive_no_flow_15_12_0_0: flow_15_12_0_0 - 1000 edge_15_12_0_0 <= 0
 inactive_no_flow_15_13_0_0: flow_15_13_0_0 - 1000 edge_15_13_0_0 <= 0
 inactive_no_flow_15_14_0_0: flow_15_14_0_0 - 1000 edge_15_14_0_0 <= 0
 inactive_no_flow_15_16_0_0: flow_15_16_0_0 - 1000 edge_15_16_0_0 <= 0
 inactive_no_flow_15_17_0_0: flow_15_17_0_0 - 1000 edge_15_17_0_0 <= 0
 inactive_no_flow_15_18_0_0: flow_15_18_0_0 - 1000 edge_15_18_0_0 <= 0
 inactive_no_flow_15_19_0_0: flow_15_19_0_0 - 1000 edge_15_19_0_0 <= 0
 inactive_no_flow_16_11_0_0: flow_16_11_0_0 - 1000 edge_16_11_0_0 <= 0
 inactive_no_flow_16_12_0_0: flow_16_12_0_0 - 1000 edge_16_12_0_0 <= 0
 inactive_no_flow_16_14_0_0: flow_16_14_0_0 - 1000 edge_16_14_0_0 <= 0
 inactive_no_flow_16_17_0_0: flow_16_17_0_0 - 1000 edge_16_17_0_0 <= 0
 inactive_no_flow_16_18_0_0: flow_16_18_0_0 - 1000 edge_16_18_0_0 <= 0
 inactive_no_flow_16_19_0_0: flow_16_19_0_0 - 1000 edge_16_19_0_0 <= 0
 inactive_no_flow_17_3_0_0: flow_17_3_0_0 - 1000 edge_17_3_0_0 <= 0
 inactive_no_flow_17_5_0_0: flow_17_5_0_0 - 1000 edge_17_5_0_0 <= 0
 inactive_no_flow_17_7_0_0: flow_17_7_0_0 - 1000 edge_17_7_0_0 <= 0
 inactive_no_flow_17_8_0_0: flow_17_8_0_0 - 1000 edge_17_8_0_0 <= 0
 inactive_no_flow_17_10_0_0: flow_17_10_0_0 - 1000 edge_17_10_0_0 <= 0
 inactive_no_flow_17_12_0_0: flow_17_12_0_0 - 1000 edge_17_12_0_0 <= 0
 inactive_no_flow_17_13_0_0: flow_17_13_0_0 - 1000 edge_17_13_0_0 <= 0
 inactive_no_flow_17_14_0_0: flow_17_14_0_0 - 1000 edge_17_14_0_0 <= 0
 inactive_no_flow_17_15_0_0: flow_17_15_0_0 - 1000 edge_17_15_0_0 <= 0
 inactive_no_flow_17_16_0_0: flow_17_16_0_0 - 1000 edge_17_16_0_0 <= 0
 inactive_no_flow_17_18_0_0: flow_17_18_0_0 - 1000 edge_17_18_0_0 <= 0
 inactive_no_flow_17_19_0_0: flow_17_19_0_0 - 1000 edge_17_19_0_0 <= 0
 inactive_no_flow_18_2_0_0: flow_18_2_0_0 - 1000 edge_18_2_0_0 <= 0
 inactive_no_flow_18_3_0_0: flow_18_3_0_0 - 1000 edge_18_3_0_0 <= 0
 inactive_no_flow_18_4_0_0: flow_18_4_0_0 - 1000 edge_18_4_0_0 <= 0
 inactive_no_flow_18_5_0_0: flow_18_5_0_0 - 1000 edge_18_5_0_0 <= 0
 inactive_no_flow_18_6_0_0: flow_18_6_0_0 - 1000 edge_18_6_0_0 <= 0
 inactive_no_flow_18_7_0_0: flow_18_7_0_0 - 1000 edge_18_7_0_0 <= 0
 inactive_no_flow_18_8_0_0: flow_18_8_0_0 - 1000 edge_18_8_0_0 <= 0
 inactive_no_flow_18_9_0_0: flow_18_9_0_0 - 1000 edge_18_9_0_0 <= 0
 inactive_no_flow_18_10_0_0: flow_18_10_0_0 - 1000 edge_18_10_0_0 <= 0
 inactive_no_flow_18_11_0_0: flow_18_11_0_0 - 1000 edge_18_11_0_0 <= 0
 inactive_no_flow_18_12_0_0: flow_18_12_0_0 - 1000 edge_18_12_0_0 <= 0
 inactive_no_flow_18_13_0_0: flow_18_13_0_0 - 1000 edge_18_13_0_0 <= 0
 inactive_no_flow_18_14_0_0: flow_18_14_0_0 - 1000 edge_18_14_0_0 <= 0
 inactive_no_flow_18_15_0_0: flow_18_15_0_0 - 1000 edge_18_15_0_0 <= 0
 inactive_no_flow_18_16_0_0: flow_18_16_0_0 - 1000 edge_18_16_0_0 <= 0
 inactive_no_flow_18_17_0_0: flow_18_17_0_0 - 1000 edge_18_17_0_0 <= 0
 inactive_no_flow_18_19_0_0: flow_18_19_0_0 - 1000 edge_18_19_0_0 <= 0
 inactive_no_flow_19_15_0_0: flow_19_15_0_0 - 1000 edge_19_15_0_0 <= 0
 inactive_no_flow_19_16_0_0: flow_19_16_0_0 - 1000 edge_19_16_0_0 <= 0
 inactive_no_flow_19_17_0_0: flow_19_17_0_0 - 1000 edge_19_17_0_0 <= 0
 inactive_no_flow_19_18_0_0: flow_19_18_0_0 - 1000 edge_19_18_0_0 <= 0
Bounds
Binaries
 edge_0_2_0_0 edge_0_3_0_0 edge_0_5_0_0 edge_0_6_0_0 edge_0_7_0_0
 edge_0_8_0_0 edge_0_10_0_0 edge_0_12_0_0 edge_0_13_0_0 edge_0_15_0_0
 edge_0_17_0_0 edge_0_18_0_0 edge_2_3_0_0 edge_2_4_0_0 edge_2_5_0_0
 edge_2_6_0_0 edge_2_7_0_0 edge_2_8_0_0 edge_2_10_0_0 edge_2_11_0_0
 edge_2_19_0_0 edge_3_2_0_0 edge_3_4_0_0 edge_3_5_0_0 edge_3_6_0_0
 edge_3_7_0_0 edge_3_8_0_0 edge_3_10_0_0 edge_3_11_0_0 edge_3_12_0_0
 edge_3_16_0_0 edge_3_18_0_0 edge_3_19_0_0 edge_4_2_0_0 edge_5_2_0_0
 edge_5_3_0_0 edge_5_4_0_0 edge_5_6_0_0 edge_5_7_0_0 edge_5_8_0_0
 edge_5_9_0_0 edge_5_10_0_0 edge_5_11_0_0 edge_5_12_0_0 edge_5_13_0_0
 edge_5_14_0_0 edge_5_15_0_0 edge_5_16_0_0 edge_5_17_0_0 edge_5_18_0_0
 edge_5_19_0_0 edge_6_2_0_0 edge_6_3_0_0 edge_6_4_0_0 edge_6_5_0_0
 edge_6_7_0_0 edge_6_8_0_0 edge_6_10_0_0 edge_6_11_0_0 edge_6_12_0_0
 edge_6_15_0_0 edge_6_16_0_0 edge_6_18_0_0 edge_6_19_0_0 edge_7_2_0_0
 edge_7_3_0_0 edge_7_4_0_0 edge_7_5_0_0 edge_7_6_0_0 edge_7_8_0_0
 edge_7_9_0_0 edge_7_10_0_0 edge_7_11_0_0 edge_7_12_0_0 edge_7_13_0_0
 edge_7_14_0_0 edge_7_15_0_0 edge_7_16_0_0 edge_7_17_0_0 edge_7_18_0_0
 edge_7_19_0_0 edge_8_5_0_0 edge_8_6_0_0 edge_8_7_0_0 edge_8_9_0_0
 edge_8_12_0_0 edge_8_15_0_0 edge_8_17_0_0 edge_8_18_0_0 edge_9_7_0_0
 edge_9_8_0_0 edge_9_10_0_0 edge_9_15_0_0 edge_9_16_0_0 edge_10_2_0_0
 edge_10_3_0_0 edge_10_4_0_0 edge_10_5_0_0 edge_10_6_0_0 edge_10_7_0_0
 edge_10_8_0_0 edge_10_9_0_0 edge_10_11_0_0 edge_10_12_0_0 edge_10_13_0_0
 edge_10_14_0_0 edge_10_15_0_0 edge_10_16_0_0 edge_10_17_0_0 edge_10_18_0_0
 edge_10_19_0_0 edge_11_3_0_0 edge_11_4_0_0 edge_11_8_0_0 edge_11_10_0_0
 edge_11_12_0_0 edge_11_16_0_0 edge_11_18_0_0 edge_11_19_0_0 edge_12_2_0_0
 edge_12_3_0_0 edge_12_4_0_0 edge_12_5_0_0 edge_12_6_0_0 edge_12_7_0_0
 edge_12_8_0_0 edge_12_9_0_0 edge_12_10_0_0 edge_12_11_0_0 edge_12_13_0_0
 edge_12_14_0_0 edge_12_15_0_0 edge_12_16_0_0 edge_12_17_0_0 edge_12_18_0_0
 edge_12_19_0_0 edge_13_3_0_0 edge_13_5_0_0 edge_13_7_0_0 edge_13_8_0_0
 edge_13_10_0_0 edge_13_12_0_0 edge_13_15_0_0 edge_13_17_0_0 edge_13_18_0_0
 edge_13_19_0_0 edge_14_5_0_0 edge_14_6_0_0 edge_14_10_0_0 edge_14_12_0_0
 edge_14_16_0_0 edge_14_17_0_0 edge_14_18_0_0 edge_14_19_0_0 edge_15_5_0_0
 edge_15_6_0_0 edge_15_7_0_0 edge_15_8_0_0 edge_15_9_0_0 edge_15_10_0_0
 edge_15_12_0_0 edge_15_13_0_0 edge_15_14_0_0 edge_15_16_0_0 edge_15_17_0_0
 edge_15_18_0_0 edge_15_19_0_0 edge_16_11_0_0 edge_16_12_0_0 edge_16_14_0_0
 edge_16_17_0_0 edge_16_18_0_0 edge_16_19_0_0 edge_17_3_0_0 edge_17_5_0_0
 edge_17_7_0_0 edge_17_8_0_0 edge_17_10_0_0 edge_17_12_0_0 edge_17_13_0_0
 edge_17_14_0_0 edge_17_15_0_0 edge_17_16_0_0 edge_17_18_0_0 edge_17_19_0_0
 edge_18_2_0_0 edge_18_3_0_0 edge_18_4_0_0 edge_18_5_0_0 edge_18_6_0_0
 edge_18_7_0_0 edge_18_8_0_0 edge_18_9_0_0 edge_18_10_0_0 edge_18_11_0_0
 edge_18_12_0_0 edge_18_13_0_0 edge_18_14_0_0 edge_18_15_0_0 edge_18_16_0_0
 edge_18_17_0_0 edge_18_19_0_0 edge_19_15_0_0 edge_19_16_0_0 edge_19_17_0_0
 edge_19_18_0_0
End
